42590
72,73,64,63,65,66,67,68,74,75,76,77,78,79,80,82,81,90,91,89,83,84,85,86,87,88,94,92,93,97,96,98,156,102,117,116,168,167,125,122,121,119,120,124,123,39,118,38,36,35,43,44,45,42,41,103,40,104,105,106,107,108,109,110,111,99,112,113,115,114,101,100,95,50,48,49,46,47,62,61,60,59,58,57,54,55,52,56,53,34,31,32,33,26,20,21,27,28,29,22,23,24,137,142,138,129,128,127,37,130,131,132,126,133,134,136,135,171,170,169,164,165,160,163,159,158,157,162,161,166,172,174,178,180,181,179,182,183,195,196,202,201,200,199,198,194,193,191,192,197,152,153,155,154,148,149,150,151,190,187,188,189,177,176,173,175,186,184,185,141,140,139,143,145,144,25,147,146,18,17,9,10,11,19,12,13,7,6,8,4,5,2,1,3,14,15,16,30,51,69,70,71,72
